p cnf 15 36
5 -8 10 0
-3 6 -13 0
6 10 -14 0
-8 -10 11 0
-3 -4 -15 0
-5 7 -13 0
-10 -11 14 0
7 9 -12 0
-6 10 15 0
-1 7 -14 0
6 -8 10 0
-9 12 -14 0
7 10 11 0
-10 -11 13 0
4 11 -14 0
9 -13 15 0
-6 -9 -12 0
7 -10 11 0
1 13 14 0
-4 -7 11 0
1 10 -11 0
1 3 11 0
-3 -11 12 0
5 -12 14 0
-6 12 -13 0
7 -14 15 0
-2 4 -5 0
10 13 14 0
-5 7 14 0
3 7 -13 0
-2 5 -15 0
1 3 -15 0
2 6 12 0
5 -11 12 0
3 12 -14 0
-2 10 -15 0
